p cnf 200 1110
-101 77 0
-101 -96 0
-101 -27 0
-101 52 0
-101 64 0
-101 -47 0
-101 69 0
-101 49 0
-101 91 0
-101 35 0
101 -77 96 27 -52 -64 47 -69 -49 -91 -35 0
-102 25 0
-102 88 0
-102 -98 0
-102 -5 0
-102 50 0
-102 71 0
-102 73 0
-102 -94 0
-102 47 0
-102 -48 0
102 -25 -88 98 5 -50 -71 -73 94 -47 48 0
-103 -6 0
-103 4 0
-103 13 0
-103 87 0
-103 -18 0
-103 3 0
-103 -28 0
-103 99 0
-103 55 0
-103 65 0
103 6 -4 -13 -87 18 -3 28 -99 -55 -65 0
-104 -20 0
-104 85 0
-104 53 0
-104 63 0
-104 -78 0
-104 66 0
-104 99 0
-104 -65 0
-104 10 0
-104 87 0
104 20 -85 -53 -63 78 -66 -99 65 -10 -87 0
-105 -35 0
-105 -31 0
-105 84 0
-105 -37 0
-105 47 0
-105 -8 0
-105 -24 0
-105 -100 0
-105 81 0
-105 -91 0
105 35 31 -84 37 -47 8 24 100 -81 91 0
-106 96 0
-106 -85 0
-106 80 0
-106 50 0
-106 -22 0
-106 90 0
-106 -91 0
-106 27 0
-106 36 0
-106 -62 0
106 -96 85 -80 -50 22 -90 91 -27 -36 62 0
-107 -7 0
-107 -20 0
-107 -26 0
-107 -23 0
-107 -81 0
-107 66 0
-107 40 0
-107 -97 0
-107 -75 0
-107 22 0
107 7 20 26 23 81 -66 -40 97 75 -22 0
-108 11 0
-108 18 0
-108 22 0
-108 41 0
-108 -98 0
-108 26 0
-108 -78 0
-108 -69 0
-108 74 0
-108 58 0
108 -11 -18 -22 -41 98 -26 78 69 -74 -58 0
-109 -90 0
-109 -3 0
-109 92 0
-109 -10 0
-109 -55 0
-109 6 0
-109 -19 0
-109 -1 0
-109 -34 0
-109 11 0
109 90 3 -92 10 55 -6 19 1 34 -11 0
-110 -56 0
-110 37 0
-110 -41 0
-110 12 0
-110 -100 0
-110 61 0
-110 -80 0
-110 -19 0
-110 38 0
-110 -40 0
110 56 -37 41 -12 100 -61 80 19 -38 40 0
101 102 103 104 105 106 107 108 109 110 0
-111 9 0
-111 -24 0
-111 -96 0
-111 -47 0
-111 -39 0
-111 -30 0
-111 11 0
-111 68 0
-111 84 0
-111 18 0
111 -9 24 96 47 39 30 -11 -68 -84 -18 0
-112 -72 0
-112 42 0
-112 -98 0
-112 -89 0
-112 -33 0
-112 -82 0
-112 67 0
-112 39 0
-112 -88 0
-112 -76 0
112 72 -42 98 89 33 82 -67 -39 88 76 0
-113 36 0
-113 -2 0
-113 64 0
-113 -38 0
-113 90 0
-113 79 0
-113 19 0
-113 58 0
-113 60 0
-113 -10 0
113 -36 2 -64 38 -90 -79 -19 -58 -60 10 0
-114 -53 0
-114 -89 0
-114 44 0
-114 7 0
-114 77 0
-114 -57 0
-114 26 0
-114 33 0
-114 -40 0
-114 52 0
114 53 89 -44 -7 -77 57 -26 -33 40 -52 0
-115 -95 0
-115 52 0
-115 31 0
-115 61 0
-115 71 0
-115 28 0
-115 98 0
-115 -12 0
-115 -89 0
-115 13 0
115 95 -52 -31 -61 -71 -28 -98 12 89 -13 0
-116 -96 0
-116 34 0
-116 -49 0
-116 -70 0
-116 3 0
-116 -44 0
-116 -60 0
-116 37 0
-116 35 0
-116 86 0
116 96 -34 49 70 -3 44 60 -37 -35 -86 0
-117 33 0
-117 54 0
-117 -43 0
-117 6 0
-117 56 0
-117 -61 0
-117 -62 0
-117 -64 0
-117 -32 0
-117 59 0
117 -33 -54 43 -6 -56 61 62 64 32 -59 0
-118 -57 0
-118 -64 0
-118 11 0
-118 60 0
-118 -27 0
-118 -9 0
-118 26 0
-118 -81 0
-118 14 0
-118 -82 0
118 57 64 -11 -60 27 9 -26 81 -14 82 0
-119 -64 0
-119 -90 0
-119 5 0
-119 45 0
-119 43 0
-119 -65 0
-119 -62 0
-119 94 0
-119 -84 0
-119 16 0
119 64 90 -5 -45 -43 65 62 -94 84 -16 0
-120 66 0
-120 -91 0
-120 1 0
-120 -73 0
-120 78 0
-120 -10 0
-120 -74 0
-120 41 0
-120 58 0
-120 -55 0
120 -66 91 -1 73 -78 10 74 -41 -58 55 0
111 112 113 114 115 116 117 118 119 120 0
-121 -96 0
-121 72 0
-121 84 0
-121 -58 0
-121 -28 0
-121 22 0
-121 -88 0
-121 -9 0
-121 26 0
-121 25 0
121 96 -72 -84 58 28 -22 88 9 -26 -25 0
-122 44 0
-122 -84 0
-122 -67 0
-122 50 0
-122 -39 0
-122 -74 0
-122 76 0
-122 -73 0
-122 99 0
-122 -33 0
122 -44 84 67 -50 39 74 -76 73 -99 33 0
-123 27 0
-123 13 0
-123 87 0
-123 -21 0
-123 -65 0
-123 -6 0
-123 52 0
-123 56 0
-123 11 0
-123 -8 0
123 -27 -13 -87 21 65 6 -52 -56 -11 8 0
-124 27 0
-124 49 0
-124 100 0
-124 -31 0
-124 -55 0
-124 68 0
-124 -42 0
-124 -50 0
-124 -69 0
-124 -85 0
124 -27 -49 -100 31 55 -68 42 50 69 85 0
-125 21 0
-125 -90 0
-125 52 0
-125 -10 0
-125 42 0
-125 -26 0
-125 95 0
-125 35 0
-125 -9 0
-125 -89 0
125 -21 90 -52 10 -42 26 -95 -35 9 89 0
-126 48 0
-126 -53 0
-126 -44 0
-126 -73 0
-126 24 0
-126 -89 0
-126 -38 0
-126 68 0
-126 63 0
-126 -56 0
126 -48 53 44 73 -24 89 38 -68 -63 56 0
-127 -1 0
-127 -3 0
-127 42 0
-127 -75 0
-127 -37 0
-127 -29 0
-127 -61 0
-127 -69 0
-127 -70 0
-127 18 0
127 1 3 -42 75 37 29 61 69 70 -18 0
-128 -77 0
-128 6 0
-128 90 0
-128 65 0
-128 -61 0
-128 48 0
-128 82 0
-128 96 0
-128 58 0
-128 37 0
128 77 -6 -90 -65 61 -48 -82 -96 -58 -37 0
-129 -64 0
-129 -45 0
-129 -96 0
-129 -81 0
-129 -11 0
-129 16 0
-129 -76 0
-129 -98 0
-129 -59 0
-129 -21 0
129 64 45 96 81 11 -16 76 98 59 21 0
-130 -21 0
-130 56 0
-130 100 0
-130 57 0
-130 77 0
-130 -73 0
-130 -60 0
-130 45 0
-130 99 0
-130 -76 0
130 21 -56 -100 -57 -77 73 60 -45 -99 76 0
121 122 123 124 125 126 127 128 129 130 0
-131 96 0
-131 55 0
-131 -37 0
-131 16 0
-131 -23 0
-131 39 0
-131 63 0
-131 75 0
-131 99 0
-131 -50 0
131 -96 -55 37 -16 23 -39 -63 -75 -99 50 0
-132 -84 0
-132 86 0
-132 11 0
-132 55 0
-132 -37 0
-132 -51 0
-132 16 0
-132 -95 0
-132 6 0
-132 -78 0
132 84 -86 -11 -55 37 51 -16 95 -6 78 0
-133 -11 0
-133 53 0
-133 -91 0
-133 -7 0
-133 -81 0
-133 -65 0
-133 84 0
-133 61 0
-133 -89 0
-133 71 0
133 11 -53 91 7 81 65 -84 -61 89 -71 0
-134 -66 0
-134 71 0
-134 -18 0
-134 -52 0
-134 -81 0
-134 -25 0
-134 99 0
-134 53 0
-134 2 0
-134 -75 0
134 66 -71 18 52 81 25 -99 -53 -2 75 0
-135 -29 0
-135 -81 0
-135 -24 0
-135 -8 0
-135 25 0
-135 17 0
-135 -48 0
-135 -2 0
-135 -4 0
-135 63 0
135 29 81 24 8 -25 -17 48 2 4 -63 0
-136 -47 0
-136 36 0
-136 48 0
-136 -13 0
-136 52 0
-136 -29 0
-136 26 0
-136 -96 0
-136 72 0
-136 -24 0
136 47 -36 -48 13 -52 29 -26 96 -72 24 0
-137 -76 0
-137 -91 0
-137 79 0
-137 84 0
-137 -26 0
-137 67 0
-137 70 0
-137 18 0
-137 74 0
-137 3 0
137 76 91 -79 -84 26 -67 -70 -18 -74 -3 0
-138 48 0
-138 -32 0
-138 49 0
-138 19 0
-138 -84 0
-138 42 0
-138 97 0
-138 54 0
-138 75 0
-138 21 0
138 -48 32 -49 -19 84 -42 -97 -54 -75 -21 0
-139 -38 0
-139 -73 0
-139 -51 0
-139 -85 0
-139 56 0
-139 -27 0
-139 -44 0
-139 -4 0
-139 33 0
-139 21 0
139 38 73 51 85 -56 27 44 4 -33 -21 0
-140 67 0
-140 39 0
-140 -88 0
-140 -89 0
-140 19 0
-140 -13 0
-140 -11 0
-140 61 0
-140 -14 0
-140 -41 0
140 -67 -39 88 89 -19 13 11 -61 14 41 0
131 132 133 134 135 136 137 138 139 140 0
-141 -99 0
-141 -82 0
-141 40 0
-141 -47 0
-141 2 0
-141 -43 0
-141 67 0
-141 22 0
-141 19 0
-141 20 0
141 99 82 -40 47 -2 43 -67 -22 -19 -20 0
-142 -22 0
-142 -51 0
-142 86 0
-142 43 0
-142 13 0
-142 -81 0
-142 -61 0
-142 9 0
-142 92 0
-142 82 0
142 22 51 -86 -43 -13 81 61 -9 -92 -82 0
-143 21 0
-143 -28 0
-143 -34 0
-143 2 0
-143 -56 0
-143 -46 0
-143 3 0
-143 -91 0
-143 57 0
-143 -70 0
143 -21 28 34 -2 56 46 -3 91 -57 70 0
-144 80 0
-144 49 0
-144 -37 0
-144 -47 0
-144 -13 0
-144 84 0
-144 -70 0
-144 50 0
-144 94 0
-144 98 0
144 -80 -49 37 47 13 -84 70 -50 -94 -98 0
-145 -68 0
-145 82 0
-145 -27 0
-145 -100 0
-145 -13 0
-145 -63 0
-145 65 0
-145 -25 0
-145 -58 0
-145 66 0
145 68 -82 27 100 13 63 -65 25 58 -66 0
-146 65 0
-146 56 0
-146 -90 0
-146 -16 0
-146 -66 0
-146 -69 0
-146 -31 0
-146 52 0
-146 -41 0
-146 -80 0
146 -65 -56 90 16 66 69 31 -52 41 80 0
-147 2 0
-147 -100 0
-147 14 0
-147 -83 0
-147 41 0
-147 96 0
-147 -65 0
-147 -30 0
-147 16 0
-147 27 0
147 -2 100 -14 83 -41 -96 65 30 -16 -27 0
-148 -35 0
-148 -94 0
-148 66 0
-148 -39 0
-148 93 0
-148 -77 0
-148 91 0
-148 -63 0
-148 -53 0
-148 -2 0
148 35 94 -66 39 -93 77 -91 63 53 2 0
-149 17 0
-149 6 0
-149 1 0
-149 -83 0
-149 -60 0
-149 -31 0
-149 33 0
-149 -7 0
-149 -20 0
-149 -88 0
149 -17 -6 -1 83 60 31 -33 7 20 88 0
-150 18 0
-150 -46 0
-150 52 0
-150 -68 0
-150 31 0
-150 -26 0
-150 -99 0
-150 -23 0
-150 -1 0
-150 53 0
150 -18 46 -52 68 -31 26 99 23 1 -53 0
141 142 143 144 145 146 147 148 149 150 0
-151 -7 0
-151 -65 0
-151 44 0
-151 -3 0
-151 -8 0
-151 28 0
-151 70 0
-151 -52 0
-151 38 0
-151 85 0
151 7 65 -44 3 8 -28 -70 52 -38 -85 0
-152 -11 0
-152 31 0
-152 -50 0
-152 -82 0
-152 -93 0
-152 -69 0
-152 70 0
-152 -41 0
-152 86 0
-152 30 0
152 11 -31 50 82 93 69 -70 41 -86 -30 0
-153 -58 0
-153 88 0
-153 -33 0
-153 -42 0
-153 -76 0
-153 -40 0
-153 -47 0
-153 92 0
-153 -46 0
-153 -37 0
153 58 -88 33 42 76 40 47 -92 46 37 0
-154 52 0
-154 -83 0
-154 -39 0
-154 62 0
-154 1 0
-154 -17 0
-154 -84 0
-154 38 0
-154 78 0
-154 86 0
154 -52 83 39 -62 -1 17 84 -38 -78 -86 0
-155 55 0
-155 52 0
-155 -75 0
-155 -47 0
-155 -3 0
-155 -88 0
-155 -40 0
-155 -77 0
-155 57 0
-155 60 0
155 -55 -52 75 47 3 88 40 77 -57 -60 0
-156 11 0
-156 -97 0
-156 -30 0
-156 16 0
-156 22 0
-156 -26 0
-156 3 0
-156 66 0
-156 87 0
-156 56 0
156 -11 97 30 -16 -22 26 -3 -66 -87 -56 0
-157 -31 0
-157 76 0
-157 -62 0
-157 -45 0
-157 1 0
-157 85 0
-157 71 0
-157 -88 0
-157 69 0
-157 75 0
157 31 -76 62 45 -1 -85 -71 88 -69 -75 0
-158 -33 0
-158 40 0
-158 61 0
-158 -45 0
-158 75 0
-158 59 0
-158 -9 0
-158 -41 0
-158 72 0
-158 85 0
158 33 -40 -61 45 -75 -59 9 41 -72 -85 0
-159 62 0
-159 30 0
-159 84 0
-159 -68 0
-159 -76 0
-159 -50 0
-159 -11 0
-159 -7 0
-159 33 0
-159 -95 0
159 -62 -30 -84 68 76 50 11 7 -33 95 0
-160 -39 0
-160 -29 0
-160 42 0
-160 -90 0
-160 -55 0
-160 -4 0
-160 1 0
-160 46 0
-160 -63 0
-160 100 0
160 39 29 -42 90 55 4 -1 -46 63 -100 0
151 152 153 154 155 156 157 158 159 160 0
-161 -20 0
-161 100 0
-161 -33 0
-161 81 0
-161 -69 0
-161 78 0
-161 64 0
-161 -31 0
-161 87 0
-161 41 0
161 20 -100 33 -81 69 -78 -64 31 -87 -41 0
-162 85 0
-162 17 0
-162 -58 0
-162 -63 0
-162 -49 0
-162 67 0
-162 -35 0
-162 59 0
-162 -99 0
-162 -18 0
162 -85 -17 58 63 49 -67 35 -59 99 18 0
-163 49 0
-163 -80 0
-163 96 0
-163 -90 0
-163 27 0
-163 -62 0
-163 99 0
-163 -26 0
-163 -72 0
-163 54 0
163 -49 80 -96 90 -27 62 -99 26 72 -54 0
-164 47 0
-164 -67 0
-164 57 0
-164 51 0
-164 -82 0
-164 -87 0
-164 -99 0
-164 80 0
-164 69 0
-164 77 0
164 -47 67 -57 -51 82 87 99 -80 -69 -77 0
-165 -84 0
-165 -86 0
-165 64 0
-165 -99 0
-165 36 0
-165 -69 0
-165 -13 0
-165 34 0
-165 -65 0
-165 63 0
165 84 86 -64 99 -36 69 13 -34 65 -63 0
-166 2 0
-166 -50 0
-166 -65 0
-166 58 0
-166 28 0
-166 -77 0
-166 81 0
-166 24 0
-166 60 0
-166 -78 0
166 -2 50 65 -58 -28 77 -81 -24 -60 78 0
-167 69 0
-167 43 0
-167 62 0
-167 -76 0
-167 84 0
-167 -44 0
-167 14 0
-167 45 0
-167 -90 0
-167 -9 0
167 -69 -43 -62 76 -84 44 -14 -45 90 9 0
-168 49 0
-168 77 0
-168 50 0
-168 -29 0
-168 -67 0
-168 6 0
-168 -87 0
-168 16 0
-168 52 0
-168 55 0
168 -49 -77 -50 29 67 -6 87 -16 -52 -55 0
-169 29 0
-169 38 0
-169 -76 0
-169 -91 0
-169 -63 0
-169 62 0
-169 -36 0
-169 -72 0
-169 67 0
-169 84 0
169 -29 -38 76 91 63 -62 36 72 -67 -84 0
-170 100 0
-170 -35 0
-170 -79 0
-170 -9 0
-170 77 0
-170 -52 0
-170 -96 0
-170 -32 0
-170 -38 0
-170 24 0
170 -100 35 79 9 -77 52 96 32 38 -24 0
161 162 163 164 165 166 167 168 169 170 0
-171 -72 0
-171 -26 0
-171 -37 0
-171 -8 0
-171 -4 0
-171 49 0
-171 81 0
-171 -68 0
-171 -86 0
-171 88 0
171 72 26 37 8 4 -49 -81 68 86 -88 0
-172 15 0
-172 -30 0
-172 -63 0
-172 -51 0
-172 22 0
-172 -42 0
-172 -41 0
-172 -62 0
-172 74 0
-172 89 0
172 -15 30 63 51 -22 42 41 62 -74 -89 0
-173 97 0
-173 -12 0
-173 -62 0
-173 -23 0
-173 -60 0
-173 -1 0
-173 39 0
-173 63 0
-173 24 0
-173 -66 0
173 -97 12 62 23 60 1 -39 -63 -24 66 0
-174 75 0
-174 35 0
-174 9 0
-174 46 0
-174 39 0
-174 34 0
-174 90 0
-174 68 0
-174 42 0
-174 -99 0
174 -75 -35 -9 -46 -39 -34 -90 -68 -42 99 0
-175 -23 0
-175 9 0
-175 3 0
-175 29 0
-175 -98 0
-175 -85 0
-175 62 0
-175 42 0
-175 -52 0
-175 78 0
175 23 -9 -3 -29 98 85 -62 -42 52 -78 0
-176 69 0
-176 -94 0
-176 58 0
-176 2 0
-176 83 0
-176 -91 0
-176 38 0
-176 -96 0
-176 9 0
-176 68 0
176 -69 94 -58 -2 -83 91 -38 96 -9 -68 0
-177 41 0
-177 11 0
-177 46 0
-177 -23 0
-177 44 0
-177 -43 0
-177 72 0
-177 33 0
-177 -65 0
-177 54 0
177 -41 -11 -46 23 -44 43 -72 -33 65 -54 0
-178 99 0
-178 -59 0
-178 -98 0
-178 53 0
-178 6 0
-178 -8 0
-178 74 0
-178 5 0
-178 58 0
-178 -71 0
178 -99 59 98 -53 -6 8 -74 -5 -58 71 0
-179 -28 0
-179 81 0
-179 -4 0
-179 -19 0
-179 -52 0
-179 -11 0
-179 -56 0
-179 -3 0
-179 -45 0
-179 -36 0
179 28 -81 4 19 52 11 56 3 45 36 0
-180 45 0
-180 -57 0
-180 -32 0
-180 22 0
-180 58 0
-180 -52 0
-180 -77 0
-180 -84 0
-180 61 0
-180 -60 0
180 -45 57 32 -22 -58 52 77 84 -61 60 0
171 172 173 174 175 176 177 178 179 180 0
-181 68 0
-181 94 0
-181 -49 0
-181 5 0
-181 -27 0
-181 38 0
-181 83 0
-181 -59 0
-181 -86 0
-181 37 0
181 -68 -94 49 -5 27 -38 -83 59 86 -37 0
-182 -66 0
-182 58 0
-182 -47 0
-182 -29 0
-182 56 0
-182 -28 0
-182 55 0
-182 -61 0
-182 -8 0
-182 25 0
182 66 -58 47 29 -56 28 -55 61 8 -25 0
-183 -49 0
-183 7 0
-183 50 0
-183 98 0
-183 76 0
-183 -13 0
-183 -11 0
-183 56 0
-183 -39 0
-183 96 0
183 49 -7 -50 -98 -76 13 11 -56 39 -96 0
-184 23 0
-184 -79 0
-184 -58 0
-184 43 0
-184 16 0
-184 -49 0
-184 11 0
-184 98 0
-184 63 0
-184 -10 0
184 -23 79 58 -43 -16 49 -11 -98 -63 10 0
-185 48 0
-185 33 0
-185 -60 0
-185 -43 0
-185 69 0
-185 32 0
-185 4 0
-185 73 0
-185 -20 0
-185 54 0
185 -48 -33 60 43 -69 -32 -4 -73 20 -54 0
-186 -94 0
-186 29 0
-186 74 0
-186 19 0
-186 12 0
-186 -71 0
-186 -84 0
-186 68 0
-186 -72 0
-186 -1 0
186 94 -29 -74 -19 -12 71 84 -68 72 1 0
-187 25 0
-187 60 0
-187 -58 0
-187 50 0
-187 81 0
-187 -91 0
-187 46 0
-187 1 0
-187 85 0
-187 80 0
187 -25 -60 58 -50 -81 91 -46 -1 -85 -80 0
-188 48 0
-188 33 0
-188 -31 0
-188 44 0
-188 37 0
-188 16 0
-188 32 0
-188 -29 0
-188 53 0
-188 34 0
188 -48 -33 31 -44 -37 -16 -32 29 -53 -34 0
-189 -77 0
-189 -5 0
-189 20 0
-189 -69 0
-189 53 0
-189 95 0
-189 -34 0
-189 33 0
-189 39 0
-189 38 0
189 77 5 -20 69 -53 -95 34 -33 -39 -38 0
-190 13 0
-190 70 0
-190 -45 0
-190 -71 0
-190 32 0
-190 -34 0
-190 -77 0
-190 21 0
-190 36 0
-190 -22 0
190 -13 -70 45 71 -32 34 77 -21 -36 22 0
181 182 183 184 185 186 187 188 189 190 0
-191 -88 0
-191 -89 0
-191 -44 0
-191 4 0
-191 98 0
-191 -97 0
-191 -25 0
-191 41 0
-191 -69 0
-191 80 0
191 88 89 44 -4 -98 97 25 -41 69 -80 0
-192 -3 0
-192 -35 0
-192 -51 0
-192 26 0
-192 80 0
-192 43 0
-192 77 0
-192 58 0
-192 -72 0
-192 -18 0
192 3 35 51 -26 -80 -43 -77 -58 72 18 0
-193 -92 0
-193 -41 0
-193 44 0
-193 -16 0
-193 74 0
-193 -78 0
-193 38 0
-193 -55 0
-193 100 0
-193 1 0
193 92 41 -44 16 -74 78 -38 55 -100 -1 0
-194 41 0
-194 -79 0
-194 -31 0
-194 -35 0
-194 99 0
-194 78 0
-194 17 0
-194 73 0
-194 -23 0
-194 -3 0
194 -41 79 31 35 -99 -78 -17 -73 23 3 0
-195 23 0
-195 -30 0
-195 58 0
-195 12 0
-195 -38 0
-195 16 0
-195 8 0
-195 1 0
-195 43 0
-195 -67 0
195 -23 30 -58 -12 38 -16 -8 -1 -43 67 0
-196 50 0
-196 -4 0
-196 -96 0
-196 91 0
-196 -56 0
-196 33 0
-196 82 0
-196 64 0
-196 -41 0
-196 -93 0
196 -50 4 96 -91 56 -33 -82 -64 41 93 0
-197 60 0
-197 97 0
-197 19 0
-197 -100 0
-197 12 0
-197 -79 0
-197 58 0
-197 -37 0
-197 -2 0
-197 -68 0
197 -60 -97 -19 100 -12 79 -58 37 2 68 0
-198 97 0
-198 -82 0
-198 6 0
-198 43 0
-198 90 0
-198 -10 0
-198 38 0
-198 76 0
-198 52 0
-198 77 0
198 -97 82 -6 -43 -90 10 -38 -76 -52 -77 0
-199 95 0
-199 -46 0
-199 53 0
-199 3 0
-199 2 0
-199 91 0
-199 35 0
-199 14 0
-199 17 0
-199 100 0
199 -95 46 -53 -3 -2 -91 -35 -14 -17 -100 0
-200 -1 0
-200 -7 0
-200 33 0
-200 -35 0
-200 32 0
-200 -34 0
-200 -50 0
-200 -5 0
-200 -64 0
-200 -92 0
200 1 7 -33 35 -32 34 50 5 64 92 0
191 192 193 194 195 196 197 198 199 200 0
